NAME : CMT14H.821747.tour
COMMENT : Cost = 0_821747
COMMENT : Found by LKH [Keld Helsgaun] Fri Sep 15 01:03:48 2017
TYPE : TOUR
DIMENSION : 110
TOUR_SECTION
1
53
32
36
38
39
40
37
35
34
33
106
44
43
45
47
46
49
52
51
50
48
109
11
13
15
17
16
20
19
18
14
24
104
76
2
5
7
10
12
9
8
4
6
102
22
23
27
29
31
30
28
26
25
21
107
42
41
60
61
59
57
54
55
56
58
110
3
100
101
98
94
93
95
96
97
99
103
64
81
80
78
74
71
72
77
79
82
105
68
66
63
75
73
62
65
69
67
70
108
91
88
87
84
83
85
86
89
90
92
-1
EOF
